100 90 10
0 1 0
1 2 0
2 3 0
3 4 0
4 5 0
5 6 0
6 7 0
7 8 0
8 9 0
10 11 1
11 12 1
12 13 1
13 14 1
14 15 1
15 16 1
16 17 1
17 18 1
18 19 1
20 21 2
21 22 2
22 23 2
23 24 2
24 25 2
25 26 2
26 27 2
27 28 2
28 29 2
30 31 3
31 32 3
32 33 3
33 34 3
34 35 3
35 36 3
36 37 3
37 38 3
38 39 3
40 41 4
41 42 4
42 43 4
43 44 4
44 45 4
45 46 4
46 47 4
47 48 4
48 49 4
50 51 5
51 52 5
52 53 5
53 54 5
54 55 5
55 56 5
56 57 5
57 58 5
58 59 5
60 61 6
61 62 6
62 63 6
63 64 6
64 65 6
65 66 6
66 67 6
67 68 6
68 69 6
70 71 7
71 72 7
72 73 7
73 74 7
74 75 7
75 76 7
76 77 7
77 78 7
78 79 7
80 81 8
81 82 8
82 83 8
83 84 8
84 85 8
85 86 8
86 87 8
87 88 8
88 89 8
90 91 9
91 92 9
92 93 9
93 94 9
94 95 9
95 96 9
96 97 9
97 98 9
98 99 9
1 0 99
1 1 74
1 2 49
1 3 67
2 4 17 7 17
1 5 7
1 6 9
1 7 39
1 8 35
1 9 49
1 0 49
1 3 67
2 4 82 5 82
1 2 92
1 1 62
1 5 84
2 8 45 5 45
1 6 30
1 7 42
1 9 71
1 0 26
2 3 33 9 33
1 1 82
1 2 98
1 5 83
1 4 16
1 6 64
1 7 65
2 9 36 3 36
1 8 77
1 0 41
2 1 62 2 62
1 4 73
1 3 94
1 6 51
1 5 46
1 2 55
1 9 31
1 7 64
1 8 46
1 1 68
1 0 26
2 5 50 0 50
1 3 46
1 4 25
2 7 88 2 88
1 2 6
1 8 13
2 9 98 5 98
2 6 84 7 84
2 0 24 7 24
1 6 80
1 2 91
1 3 55
1 1 48
1 8 99
1 4 72
1 9 91
1 7 84
1 5 12
1 2 16
1 3 13
1 0 9
1 1 58
1 4 23
1 7 85
1 5 36
1 6 89
1 8 71
1 9 41
1 2 54
2 0 41 2 41
1 3 38
1 4 53
1 1 11
1 5 74
1 9 88
1 6 46
1 7 41
1 8 65
1 2 53
2 1 50 4 50
1 4 40
1 0 90
1 7 7
1 5 80
1 3 57
1 9 60
1 6 91
1 8 47
1 2 45
1 0 59
2 8 81 4 81
1 3 99
1 6 71
1 1 19
1 4 75
1 7 77
1 9 94
1 5 95